data/benchmarks/bayes/75-10-10-q.cnf
p cnf 460 439
c weights 0.144521 0.855479 1 1 1 1 1 1 1 1 1 1 1 1 1 1 1 1 1 1 1 1 1 1 1 1 1 1 1 1 1 1 1 1 1 1 1 1 1 1 1 1 1 1 1 1 1 1 1 1 1 1 1 1 1 1 1 1 1 1 1 1 1 1 1 1 1 1 1 1 1 1 1 1 1 1 1 1 1 1 1 1 1 1 1 1 1 1 1 1 1 1 1 1 1 1 1 1 1 1 1 1 1 1 1 1 1 1 1 1 1 1 1 1 1 1 1 1 1 1 1 1 1 1 1 1 1 1 1 1 1 1 1 1 1 1 1 1 1 1 1 1 1 1 1 1 1 1 1 1 1 1 1 1 1 1 1 1 1 1 1 1 1 1 1 1 1 1 1 1 1 1 1 1 1 1 1 1 1 1 1 1 1 1 1 1 1 1 1 1 1 1 1 1 1 1 1 1 1 1 0.5 0.5 0.5 0.5 0.5 0.5 0.5 0.5 0.5 0.5 0.5 0.5 0.5 0.5 0.5 0.5 0.5 0.5 0.5 0.5 0.114504 0.8854960000000001 0.395255 0.604745 0.5 0.5 0.5 0.5 0.5 0.5 0.5 0.5 0.5 0.5 0.5 0.5 0.29811 0.70189 0.866275 0.13372499999999998 0.5 0.5 0.5 0.5 0.5 0.5 0.5 0.5 0.5 0.5 0.5 0.5 0.5 0.5 0.5 0.5 0.0252281 0.9747719 0.468522 0.531478 0.638239 0.361761 0.838059 0.161941 0.685434 0.314566 0.346779 0.653221 0.193828 0.806172 0.435783 0.564217 0.5 0.5 0.5 0.5 0.5 0.5 0.5 0.5 0.120452 0.879548 0.102152 0.897848 0.609877 0.390123 0.418562 0.581438 0.277279 0.722721 0.679569 0.320431 0.479788 0.520212 0.45336 0.54664 0.5 0.5 0.5 0.5 0.5 0.5 0.5 0.5 0.538812 0.46118800000000004 0.55979 0.44021 0.393117 0.6068830000000001 0.177051 0.822949 0.5 0.5 0.5 0.5 0.744628 0.25537200000000004 0.478618 0.521382 0.298269 0.701731 0.205911 0.794089 0.5 0.5 0.5 0.5 0.5 0.5 0.5 0.5 0.5 0.5 0.5 0.5 0.5 0.5 0.5 0.5 0.5 0.5 0.5 0.5 0.5 0.5 0.5 0.5 0.5 0.5 0.5 0.5 0.5 0.5 0.5 0.5 0.5 0.5 0.5 0.5 0.5 0.5 0.5 0.5 0.5 0.5 0.5 0.5 0.5 0.5 0.5 0.5 0.95448 0.045520000000000005 0.543667 0.456333 0.668051 0.33194900000000005 0.789261 0.210739 0.693755 0.306245 0.726193 0.273807 0.778372 0.22162800000000005 0.138021 0.861979 0.5 0.5 0.5 0.5 0.5 0.5 0.5 0.5 0.5 0.5 0.5 0.5 0.5 0.5 0.5 0.5 0.5 0.5 0.5 0.5 0.5 0.5 0.5 0.5 0.5 0.5 0.5 0.5 0.5 0.5 0.5 0.5 0.5 0.5 0.5 0.5 0.5 0.5 0.5 0.5 0.5 0.5 0.5 0.5 0.5 0.5 0.5 0.5 0.5 0.5 0.5 0.5 0.5 0.5 0.5 0.5 0.5 0.5 0.5 0.5 0.5 0.5 0.5 0.5 0.5 0.5 0.5 0.5 0.5 0.5 0.5 0.5 0.5 0.5 0.5 0.5 0.5 0.5 0.5 0.5 0.5 0.5 0.5 0.5 0.5 0.5 0.5 0.5 0.5 0.5 0.5 0.5 0.5 0.5 0.5 0.5 0.5 0.5 0.5 0.5 0.5 0.5 0.5 0.5 0.5 0.5 0.5 0.5 0.5 0.5 0.5 0.5 0.953558 0.04644199999999998 0.897145 0.10285500000000003 0.150155 0.849845 0.704911 0.29508900000000005 0.5 0.5 0.5 0.5 0.5 0.5 0.5 0.5 0.5 0.5 0.5 0.5 0.5 0.5 0.5 0.5 0.5 0.5 0.5 0.5 0.5 0.5 0.5 0.5 0.5 0.5 0.5 0.5 0.5 0.5 0.5 0.5 0.778083 0.22191700000000003 0.514689 0.48531100000000005 0.5 0.5 0.5 0.5 0.5 0.5 0.5 0.5 0.5 0.5 0.5 0.5 0.5 0.5 0.5 0.5 0.5 0.5 0.5 0.5 0.5 0.5 0.5 0.5 0.0339753 0.9660247 0.739106 0.26089399999999996 0.118101 0.881899 0.409235 0.590765 0.5 0.5 0.5 0.5 0.5 0.5 0.5 0.5 0.5 0.5 0.5 0.5 0.5 0.5 0.5 0.5 0.5 0.5 0.5 0.5 0.5 0.5 0.5 0.5 0.5 0.5 0.5 0.5 0.5 0.5 0.5 0.5 0.5 0.5 0.5 0.5 0.5 0.5 0.5 0.5 0.5 0.5 0.5 0.5 0.5 0.5 0.5 0.5 0.5 0.5 0.5 0.5 0.5 0.5 0.5 0.5 0.5 0.5 0.5 0.5 0.5 0.5 0.5 0.5 0.5 0.5 0.5 0.5 0.5 0.5 0.5 0.5 0.5 0.5 0.5 0.5 0.239342 0.7606580000000001 0.577388 0.422612 0.876926 0.12307400000000002 0.539254 0.460746 0.805699 0.19430099999999995 0.811435 0.18856499999999998 0.197914 0.802086 0.27591 0.72409 0.549755 0.450245 0.485227 0.5147729999999999 0.165674 0.834326 0.310831 0.6891689999999999 0.5 0.5 0.5 0.5 0.5 0.5 0.5 0.5 0.00441423 0.99558577 0.139009 0.8609910000000001 0.385888 0.614112 0.973097 0.02690300000000001 0.5 0.5 0.5 0.5 0.5 0.5 0.5 0.5 0.5 0.5 0.5 0.5 0.5 0.5 0.5 0.5 0.5 0.5 0.5 0.5 0.5 0.5 0.5 0.5 0.5 0.5 0.5 0.5 0.5 0.5 0.5 0.5 0.5 0.5 0.5 0.5 0.674396 0.325604 0.334535 0.665465 0.991201 0.008799000000000001 0.653646 0.34635400000000005 0.5 0.5 0.5 0.5 0.5 0.5 0.5 0.5 0.652019 0.347981 0.645522 0.35447799999999996 0.0945542 0.9054458 0.930221 0.06977900000000004 0.5 0.5 0.5 0.5 0.5 0.5 0.5 0.5 0.5 0.5 0.5 0.5 0.5 0.5 0.5 0.5 0.5 0.5 0.5 0.5 0.5 0.5 0.5 0.5 0.5 0.5 0.5 0.5 0.5 0.5 0.5 0.5 0.5 0.5 0.5 0.5 0.5 0.5 0.5 0.5 0.5 0.5 0.5 0.5 0.5 0.5 0.5 0.5 0.5 0.5 0.5 0.5 0.5 0.5 0.5 0.5 0.5 0.5 0.5 0.5 0.5 0.5 0.5 0.5 0.5 0.5 0.5 0.5 0.5 0.5 0.5 0.5 0.5 0.5 0.5 0.5 0.5 0.5 0.5 0.5 0.5 0.5 0.5 0.5 0.5 0.5 0.5 0.5 0.5 0.5 0.5 0.5 0.5 0.5 0.5 0.5 0.5 0.5 0.5 0.5 0.5 0.5 0.5 0.5 0.5 0.5 0.5 0.5 0.5 0.5 0.5 0.5 0.5 0.5 0.5 0.5 0.5 0.5 0.5 0.5 0.5 0.5 0.5 0.5 0.5 0.5 0.5 0.5 0.658375 0.34162499999999996 0.743707 0.256293 0.794064 0.205936 0.734327 0.26567300000000005 0.5 0.5 0.5 0.5 0.5 0.5 0.5 0.5 0.5 0.5 0.5 0.5 0.5 0.5 0.5 0.5 0.57532 0.42467999999999995 0.57364 0.42635999999999996 0.629142 0.370858 0.894144 0.10585599999999995 0.5 0.5 0.5 0.5 0.5 0.5 0.5 0.5
-1 2 0
1 -2 0
-2 3 0
2 -3 0
-3 -4 0
3 4 0
-4 -5 0
4 5 0
-5 6 0
5 -6 0
-6 -111 7 0
-6 111 -7 0
6 -112 7 0
6 112 -7 0
-7 8 0
7 -8 0
-8 -9 0
8 9 0
-9 10 0
9 -10 0
-1 -119 11 0
-1 119 -11 0
1 -120 11 0
1 120 -11 0
-11 -2 12 0
-11 2 12 0
11 -2 -12 0
11 2 12 0
-12 -3 -13 0
-12 3 -13 0
12 -3 13 0
12 3 13 0
-13 -4 -129 14 0
-13 -4 129 -14 0
-13 4 -130 14 0
-13 4 130 -14 0
13 -4 -131 14 0
13 -4 131 -14 0
13 4 -132 14 0
13 4 132 -14 0
-14 -5 -133 15 0
-14 -5 133 -15 0
-14 5 -134 15 0
-14 5 134 -15 0
14 -5 -135 15 0
14 -5 135 -15 0
14 5 -136 15 0
14 5 136 -15 0
-15 -6 -16 0
-15 6 16 0
15 -6 -16 0
15 6 16 0
-16 -7 -141 17 0
-16 -7 141 -17 0
-16 7 -142 17 0
-16 7 142 -17 0
16 -7 -143 17 0
16 -7 143 -17 0
16 7 -144 17 0
16 7 144 -17 0
-17 -8 -145 18 0
-17 -8 145 -18 0
-17 8 -146 18 0
-17 8 146 -18 0
17 -8 -147 18 0
17 -8 147 -18 0
17 8 -148 18 0
17 8 148 -18 0
-18 -9 -19 0
-18 9 19 0
18 -9 19 0
18 9 19 0
-19 -10 -153 20 0
-19 -10 153 -20 0
-19 10 -154 20 0
-19 10 154 -20 0
19 -10 -155 20 0
19 -10 155 -20 0
19 10 -156 20 0
19 10 156 -20 0
-11 21 0
11 -21 0
-21 -12 -159 22 0
-21 -12 159 -22 0
-21 12 -160 22 0
-21 12 160 -22 0
21 -12 -161 22 0
21 -12 161 -22 0
21 12 -162 22 0
21 12 162 -22 0
-22 -13 -23 0
-22 13 23 0
22 -13 -23 0
22 13 -23 0
-23 -14 24 0
-23 14 -24 0
23 -14 -24 0
23 14 24 0
-24 -15 25 0
-24 15 -25 0
24 -15 -25 0
24 15 -25 0
-25 -16 26 0
-25 16 26 0
25 -16 -26 0
25 16 -26 0
-26 -17 27 0
-26 17 -27 0
26 -17 27 0
26 17 27 0
-27 -18 -28 0
-27 18 -28 0
27 -18 -28 0
27 18 28 0
-28 -19 -187 29 0
-28 -19 187 -29 0
-28 19 -188 29 0
-28 19 188 -29 0
28 -19 -189 29 0
28 -19 189 -29 0
28 19 -190 29 0
28 19 190 -29 0
-29 -20 -191 30 0
-29 -20 191 -30 0
-29 20 -192 30 0
-29 20 192 -30 0
29 -20 -193 30 0
29 -20 193 -30 0
29 20 -194 30 0
29 20 194 -30 0
-21 31 0
21 -31 0
-31 -22 -32 0
-31 22 32 0
31 -22 32 0
31 22 32 0
-32 -23 33 0
-32 23 -33 0
32 -23 -33 0
32 23 -33 0
-33 -24 -34 0
-33 24 -34 0
33 -24 34 0
33 24 -34 0
-34 -25 35 0
-34 25 35 0
34 -25 35 0
34 25 -35 0
-35 -26 36 0
-35 26 -36 0
35 -26 -36 0
35 26 -36 0
-36 -27 -37 0
-36 27 -37 0
36 -27 37 0
36 27 37 0
-37 -28 -38 0
-37 28 -38 0
37 -28 38 0
37 28 38 0
-38 -29 -39 0
-38 29 39 0
38 -29 -39 0
38 29 39 0
-39 -30 -40 0
-39 30 40 0
39 -30 40 0
39 30 -40 0
-31 41 0
31 -41 0
-41 -32 -42 0
-41 32 42 0
41 -32 42 0
41 32 42 0
-42 -33 -43 0
-42 33 43 0
42 -33 -43 0
42 33 -43 0
-43 -34 44 0
-43 34 -44 0
43 -34 -44 0
43 34 -44 0
-44 -35 45 0
-44 35 45 0
44 -35 -45 0
44 35 45 0
-45 -36 -251 46 0
-45 -36 251 -46 0
-45 36 -252 46 0
-45 36 252 -46 0
45 -36 -253 46 0
45 -36 253 -46 0
45 36 -254 46 0
45 36 254 -46 0
-46 -37 -47 0
-46 37 -47 0
46 -37 -47 0
46 37 47 0
-47 -38 48 0
-47 38 48 0
47 -38 48 0
47 38 -48 0
-48 -39 49 0
-48 39 49 0
48 -39 -49 0
48 39 49 0
-49 -40 50 0
-49 40 50 0
49 -40 -50 0
49 40 -50 0
-41 -271 51 0
-41 271 -51 0
41 -272 51 0
41 272 -51 0
-51 -42 -52 0
-51 42 52 0
51 -42 -52 0
51 42 -52 0
-52 -43 53 0
-52 43 -53 0
52 -43 -53 0
52 43 -53 0
-53 -44 54 0
-53 44 54 0
53 -44 -54 0
53 44 -54 0
-54 -45 -285 55 0
-54 -45 285 -55 0
-54 45 -286 55 0
-54 45 286 -55 0
54 -45 -287 55 0
54 -45 287 -55 0
54 45 -288 55 0
54 45 288 -55 0
-55 -46 56 0
-55 46 -56 0
55 -46 56 0
55 46 -56 0
-56 -47 57 0
-56 47 57 0
56 -47 -57 0
56 47 57 0
-57 -48 -58 0
-57 48 -58 0
57 -48 58 0
57 48 -58 0
-58 -49 59 0
-58 49 59 0
58 -49 -59 0
58 49 -59 0
-59 -50 60 0
-59 50 60 0
59 -50 60 0
59 50 -60 0
-51 61 0
51 -61 0
-61 -52 62 0
-61 52 62 0
61 -52 -62 0
61 52 62 0
-62 -53 63 0
-62 53 -63 0
62 -53 -63 0
62 53 63 0
-63 -54 64 0
-63 54 64 0
63 -54 -64 0
63 54 -64 0
-64 -55 65 0
-64 55 -65 0
64 -55 -65 0
64 55 65 0
-65 -56 -327 66 0
-65 -56 327 -66 0
-65 56 -328 66 0
-65 56 328 -66 0
65 -56 -329 66 0
65 -56 329 -66 0
65 56 -330 66 0
65 56 330 -66 0
-66 -57 -331 67 0
-66 -57 331 -67 0
-66 57 -332 67 0
-66 57 332 -67 0
66 -57 -333 67 0
66 -57 333 -67 0
66 57 -334 67 0
66 57 334 -67 0
-67 -58 -335 68 0
-67 -58 335 -68 0
-67 58 -336 68 0
-67 58 336 -68 0
67 -58 -337 68 0
67 -58 337 -68 0
67 58 -338 68 0
67 58 338 -68 0
-68 -59 -69 0
-68 59 69 0
68 -59 -69 0
68 59 69 0
-69 -60 -343 70 0
-69 -60 343 -70 0
-69 60 -344 70 0
-69 60 344 -70 0
69 -60 -345 70 0
69 -60 345 -70 0
69 60 -346 70 0
69 60 346 -70 0
-61 -71 0
61 71 0
-71 -62 72 0
-71 62 72 0
71 -62 72 0
71 62 -72 0
-72 -63 -73 0
-72 63 -73 0
72 -63 73 0
72 63 73 0
-73 -64 74 0
-73 64 74 0
73 -64 -74 0
73 64 74 0
-74 -65 75 0
-74 65 75 0
74 -65 -75 0
74 65 75 0
-75 -66 -365 76 0
-75 -66 365 -76 0
-75 66 -366 76 0
-75 66 366 -76 0
75 -66 -367 76 0
75 -66 367 -76 0
75 66 -368 76 0
75 66 368 -76 0
-76 -67 77 0
-76 67 77 0
76 -67 -77 0
76 67 -77 0
-77 -68 -373 78 0
-77 -68 373 -78 0
-77 68 -374 78 0
-77 68 374 -78 0
77 -68 -375 78 0
77 -68 375 -78 0
77 68 -376 78 0
77 68 376 -78 0
-78 -69 79 0
-78 69 -79 0
78 -69 -79 0
78 69 -79 0
-79 -70 -80 0
-79 70 -80 0
79 -70 80 0
79 70 80 0
-71 -81 0
71 81 0
-81 -72 82 0
-81 72 -82 0
81 -72 -82 0
81 72 -82 0
-82 -73 83 0
-82 73 -83 0
82 -73 -83 0
82 73 83 0
-83 -74 -84 0
-83 74 84 0
83 -74 84 0
83 74 -84 0
-84 -75 85 0
-84 75 -85 0
84 -75 85 0
84 75 -85 0
-85 -76 86 0
-85 76 86 0
85 -76 -86 0
85 76 86 0
-86 -77 87 0
-86 77 -87 0
86 -77 -87 0
86 77 -87 0
-87 -78 -88 0
-87 78 -88 0
87 -78 88 0
87 78 88 0
-88 -79 -89 0
-88 79 -89 0
88 -79 89 0
88 79 -89 0
-89 -80 -90 0
-89 80 -90 0
89 -80 90 0
89 80 90 0
-81 -91 0
81 91 0
-91 -82 92 0
-91 82 92 0
91 -82 92 0
91 82 -92 0
-92 -83 -93 0
-92 83 93 0
92 -83 93 0
92 83 93 0
-93 -84 -94 0
-93 84 94 0
93 -84 -94 0
93 84 94 0
-94 -85 95 0
-94 85 -95 0
94 -85 95 0
94 85 95 0
-95 -86 -441 96 0
-95 -86 441 -96 0
-95 86 -442 96 0
-95 86 442 -96 0
95 -86 -443 96 0
95 -86 443 -96 0
95 86 -444 96 0
95 86 444 -96 0
-96 -87 97 0
-96 87 -97 0
96 -87 -97 0
96 87 -97 0
-97 -88 98 0
-97 88 -98 0
97 -88 98 0
97 88 98 0
-98 -89 -453 99 0
-98 -89 453 -99 0
-98 89 -454 99 0
-98 89 454 -99 0
98 -89 -455 99 0
98 -89 455 -99 0
98 89 -456 99 0
98 89 456 -99 0
-99 -90 -100 0
-99 90 -100 0
99 -90 -100 0
99 90 100 0
100 0
