data/benchmarks/bayes/75-10-10-q.gr
p tw 460 489
29 194
66 332
7 17
67 68
99 100
67 77
8 9
67 333
8 18
40 50
15 133
41 271
41 42
73 74
41 51
25 34
77 373
18 147
73 83
14 15
28 188
14 24
89 454
74 75
74 84
45 286
46 251
15 16
29 189
66 327
47 48
15 25
47 57
59 68
14 136
48 49
48 58
76 367
80 90
58 337
69 346
81 82
33 42
7 142
81 91
86 444
45 254
22 23
84 93
22 32
21 162
66 75
55 56
66 331
7 16
55 65
58 67
14 131
40 49
22 162
68 376
73 82
18 146
32 41
28 187
14 23
65 74
47 56
10 156
6 15
21 22
14 135
21 31
76 366
80 89
39 48
58 336
54 55
69 345
54 64
99 453
45 253
11 120
87 88
87 97
21 161
28 29
28 38
88 89
88 98
20 192
29 30
14 130
61 62
61 71
2 3
17 141
2 12
62 63
96 443
94 95
3 4
35 36
35 45
95 96
75 365
36 37
68 69
55 288
68 78
65 329
57 334
69 70
14 134
78 375
69 79
58 335
17 145
54 63
13 22
60 344
43 44
43 53
36 252
87 96
46 55
19 190
20 155
76 77
12 160
28 37
76 86
20 191
79 88
68 338
95 441
20 29
2 11
6 112
54 287
96 442
51 272
53 62
99 456
35 44
9 10
30 194
86 95
9 19
13 129
68 77
27 36
65 328
42 43
16 143
57 333
42 52
78 374
60 69
5 133
17 144
75 76
75 85
16 17
60 343
16 26
98 455
36 251
19 189
20 154
56 327
49 50
49 59
12 159
66 368
82 83
82 92
23 24
23 33
83 84
6 111
54 286
51 271
8 148
24 25
56 57
56 66
4 132
30 193
57 58
89 90
89 99
67 337
30 40
16 142
95 444
78 373
31 32
34 43
64 65
98 454
29 193
5 6
67 76
20 153
97 98
66 367
67 332
8 17
13 132
70 346
82 91
89 453
74 83
8 147
45 285
19 156
29 188
56 65
15 24
4 131
89 98
67 336
48 57
63 64
63 73
15 136
4 5
7 141
4 14
77 376
86 443
22 31
37 38
46 254
37 47
98 453
29 192
66 330
55 64
70 80
66 366
1 120
29 39
67 331
11 12
22 161
11 21
70 345
68 375
62 72
44 45
18 145
44 54
3 13
8 146
29 187
36 46
96 97
66 334
18 19
10 155
18 28
4 130
67 335
76 365
10 20
15 135
69 344
77 375
86 442
45 252
28 190
11 119
89 456
21 160
85 86
45 288
46 253
29 191
66 329
88 97
14 129
77 78
29 38
77 87
22 160
68 374
62 71
7 144
51 52
3 12
51 61
55 287
36 45
66 333
10 154
14 133
69 78
7 112
10 19
15 134
41 272
69 343
25 26
25 35
45 251
28 189
43 52
21 159
75 368
17 18
17 27
66 328
76 85
68 337
50 60
77 86
76 368
68 373
58 338
17 148
96 441
83 93
99 455
24 34
84 85
84 94
9 18
57 67
55 286
10 153
65 327
20 194
58 59
57 332
58 68
14 132
42 51
90 100
7 111
31 41
17 143
91 92
75 84
32 33
32 42
16 25
64 74
75 367
5 15
19 188
65 66
17 26
65 75
49 58
6 7
6 16
98 99
68 336
50 59
39 40
5 136
39 49
23 32
17 147
54 285
83 92
99 454
72 73
60 346
24 33
72 82
36 254
30 192
56 330
57 66
55 285
12 162
20 193
30 39
16 141
57 331
95 443
90 99
17 142
96 444
64 73
75 366
38 39
5 14
19 187
38 48
13 131
65 330
71 72
68 335
71 81
78 376
12 13
12 22
5 135
17 146
13 14
45 46
13 23
45 55
19 155
60 345
72 81
36 253
46 47
78 79
30 191
20 156
46 56
56 329
78 88
12 161
19 20
19 29
79 80
79 89
63 72
95 442
52 53
20 30
4 13
52 62
54 288
53 54
53 63
37 46
85 95
26 27
26 36
86 87
38 47
86 96
70 79
66 365
1 119
27 28
13 130
27 37
70 344
16 144
12 21
60 70
5 134
44 53
1 2
1 11
8 145
93 94
45 54
19 154
98 456
18 27
4 129
56 328
78 87
67 334
19 28
77 374
18 148
52 61
86 441
89 455
45 287
46 252
85 94
29 190
59 60
26 35
59 69
67 338
22 159
92 93
70 343
33 34
33 43
7 143
34 35
66 67
34 44
66 76
19 153
7 8
